unsat
( c100
  c101
  c102
  c106
  c107
  c117
  c118
  c119
  c120
  c122
  c126
  c128
  c130
  c132
  c133
  c134
  c138
  c139
  c147
  c149
  c150
  c151
  c152
  c153
  c154
  c158
  c160
  c162
  c164
  c165
  c166
  c172
  c173
  c174
  c175
  c176
  c179
  c180
  c186
  c189
  c192
  c195
  c196
  c197
  c198
  c202
  c204
  c205
  c206
  c207
  c208
  c211
  c212
  c218
  c221
  c224
  c227
  c228
  c229
  c230
  c236
  c24
  c245
  c246
  c247
  c248
  c250
  c256
  c258
  c259
  c26
  c260
  c261
  c267
  c275
  c277
  c278
  c279
  c280
  c282
  c286
  c288
  c290
  c292
  c293
  c294
  c300
  c301
  c302
  c303
  c304
  c307
  c308
  c314
  c317
  c32
  c320
  c323
  c324
  c325
  c326
  c332
  c333
  c334
  c335
  c336
  c34
  c340
  c346
  c349
  c352
  c355
  c356
  c357
  c358
  c36
  c364
  c37
  c372
  c373
  c374
  c375
  c376
  c378
  c384
  c386
  c387
  c388
  c389
  c396
  c397
  c398
  c399
  c400
  c403
  c404
  c406
  c407
  c409
  c410
  c412
  c413
  c415
  c416
  c418
  c419
  c42
  c422
  c439
  c44
  c47
  c48
  c5
  c51
  c52
  c57
  c58
  c61
  c64
  c67
  c68
  c69
  c70
  c76
  c77
  c78
  c79
  c80
  c84
  c90
  c93
  c96
  c99 )
